
Welcome to IBM(R) ILOG(R) CPLEX(R) Interactive Optimizer 22.1.1.0
  with Simplex, Mixed Integer & Barrier Optimizers
5725-A06 5725-A29 5724-Y48 5724-Y49 5724-Y54 5724-Y55 5655-Y21
Copyright IBM Corp. 1988, 2022.  All Rights Reserved.

Type 'help' for a list of available commands.
Type 'help' followed by a command name for more
information on commands.

CPLEX> Selected objective sense:  MINIMIZE
Selected objective  name:  00000000
Selected RHS        name:  RHS1
Selected bound      name:  BOUND
Problem 'ee.mps' read.
Read time = 0.03 sec. (3.14 ticks)
CPLEX> New value for time limit in seconds: 7200
CPLEX> New value for parallel optimization mode: -1
CPLEX> New value for default parallel thread count: 40
CPLEX> New value for mixed integer optimality gap tolerance: 1e-13
CPLEX> Version identifier: 22.1.1.0 | 2022-11-28 | 9160aff4d
CPXPARAM_Threads                                 40
CPXPARAM_Parallel                                -1
CPXPARAM_TimeLimit                               7200
CPXPARAM_MIP_Tolerances_MIPGap                   1e-13
Found incumbent of value 0.000000 after 0.00 sec. (0.31 ticks)
Tried aggregator 2 times.
MIP Presolve eliminated 180 rows and 2745 columns.
MIP Presolve modified 5862 coefficients.
Aggregator did 713 substitutions.
Reduced MIP has 3623 rows, 7739 columns, and 28643 nonzeros.
Reduced MIP has 7739 binaries, 0 generals, 0 SOSs, and 0 indicators.
Presolve time = 0.07 sec. (68.54 ticks)
Probing time = 0.03 sec. (5.29 ticks)
Tried aggregator 1 time.
Detecting symmetries...
Reduced MIP has 3623 rows, 7739 columns, and 28643 nonzeros.
Reduced MIP has 7739 binaries, 0 generals, 0 SOSs, and 0 indicators.
Presolve time = 0.02 sec. (21.84 ticks)
Probing time = 0.02 sec. (5.10 ticks)
Clique table members: 18551.
MIP emphasis: balance optimality and feasibility.
MIP search method: dynamic search.
Parallel mode: opportunistic, using up to 40 threads.
Root relaxation solution time = 0.08 sec. (69.45 ticks)

        Nodes                                         Cuts/
   Node  Left     Objective  IInf  Best Integer    Best Bound    ItCnt     Gap

*     0+    0                            0.0000  -1.31000e+13              --- 
*     0+    0                      -4.39000e+12  -1.31000e+13           198.41%
*     0+    0                      -5.49000e+12  -1.31000e+13           138.62%
      0     0  -1.30900e+13    67  -5.49000e+12  -1.30900e+13     1768  138.43%
*     0+    0                      -1.30900e+13  -1.30900e+13             0.00%
      0     0  -1.30900e+13   153  -1.30900e+13      Cuts: 53     2149    0.00%
*     0+    0                      -1.30900e+13  -1.30900e+13             0.00%
      0     0  -1.30900e+13   184  -1.30900e+13      Cuts: 60     2502    0.00%
*     0+    0                      -1.30900e+13  -1.30900e+13             0.00%
*     0+    0                      -1.30900e+13  -1.30900e+13             0.00%
*     0+    0                      -1.30900e+13  -1.30900e+13             0.00%
      0     2  -1.30900e+13   162  -1.30900e+13  -1.30900e+13     2502    0.00%
Elapsed time = 1.72 sec. (800.82 ticks, tree = 0.02 MB, solutions = 8)
    523    62        cutoff        -1.30900e+13  -1.30900e+13    25431    0.00%
   1391   196  -1.30900e+13   111  -1.30900e+13  -1.30900e+13    76229    0.00%
*  1603   239      integral     0  -1.30900e+13  -1.30900e+13    90232    0.00%
   1746   270  -1.30900e+13   156  -1.30900e+13  -1.30900e+13    99747    0.00%
   2477   333        cutoff        -1.30900e+13  -1.30900e+13   116801    0.00%
   3570   231  -1.30900e+13    93  -1.30900e+13  -1.30900e+13   132049    0.00%
   4753   457  -1.30900e+13    72  -1.30900e+13  -1.30900e+13   222584    0.00%
   5809   707        cutoff        -1.30900e+13  -1.30900e+13   282107    0.00%
   6786   799  -1.30900e+13   227  -1.30900e+13  -1.30900e+13   319197    0.00%
   7615   686  -1.30900e+13    51  -1.30900e+13  -1.30900e+13   278092    0.00%
  10266   659  -1.30900e+13    48  -1.30900e+13  -1.30900e+13   535854    0.00%
Elapsed time = 6.19 sec. (3903.47 ticks, tree = 10.45 MB, solutions = 13)

Performing restart 1

Repeating presolve.
Tried aggregator 2 times.
MIP Presolve eliminated 224 rows and 938 columns.
MIP Presolve added 56 rows and 0 columns.
MIP Presolve modified 1943 coefficients.
Aggregator did 173 substitutions.
Reduced MIP has 3215 rows, 6612 columns, and 23984 nonzeros.
Reduced MIP has 6612 binaries, 0 generals, 0 SOSs, and 0 indicators.
Presolve time = 0.08 sec. (82.60 ticks)
Tried aggregator 2 times.
MIP Presolve eliminated 44 rows and 84 columns.
MIP Presolve added 16 rows and 0 columns.
MIP Presolve modified 65 coefficients.
Aggregator did 15 substitutions.
Reduced MIP has 3172 rows, 6507 columns, and 23575 nonzeros.
Reduced MIP has 6507 binaries, 0 generals, 0 SOSs, and 0 indicators.
Presolve time = 0.05 sec. (42.93 ticks)
Tried aggregator 1 time.
MIP Presolve eliminated 1 rows and 2 columns.
MIP Presolve modified 2 coefficients.
Reduced MIP has 3171 rows, 6505 columns, and 23567 nonzeros.
Reduced MIP has 6505 binaries, 0 generals, 0 SOSs, and 0 indicators.
Presolve time = 0.04 sec. (26.02 ticks)
Represolve time = 0.32 sec. (235.79 ticks)
  11025     0  -1.30900e+13   235  -1.30900e+13      Cuts: 51   566220    0.00%
  11025     0  -1.30900e+13   261  -1.30900e+13      Cuts: 53   566409    0.00%
  11025     0  -1.30900e+13   212  -1.30900e+13      Cuts: 29   566557    0.00%
  11025     0  -1.30900e+13   307  -1.30900e+13      Cuts: 57   567211    0.00%
  11025     0  -1.30900e+13   410  -1.30900e+13      Cuts: 48   567562    0.00%
  11025     0  -1.30900e+13   324  -1.30900e+13      Cuts: 44   567921    0.00%
  11025     0  -1.30900e+13   304  -1.30900e+13      Cuts: 57   568090    0.00%
  11025     0  -1.30900e+13   357  -1.30900e+13  ZeroHalf: 10   568130    0.00%

Repeating presolve.
Tried aggregator 3 times.
MIP Presolve eliminated 2127 rows and 4554 columns.
MIP Presolve added 10 rows and 0 columns.
MIP Presolve modified 498 coefficients.
Aggregator did 323 substitutions.
Reduced MIP has 705 rows, 1600 columns, and 5364 nonzeros.
Reduced MIP has 1600 binaries, 0 generals, 0 SOSs, and 0 indicators.
Presolve time = 0.02 sec. (20.15 ticks)
Tried aggregator 1 time.
Reduced MIP has 705 rows, 1600 columns, and 5364 nonzeros.
Reduced MIP has 1600 binaries, 0 generals, 0 SOSs, and 0 indicators.
Presolve time = 0.00 sec. (3.71 ticks)
Represolve time = 0.10 sec. (82.58 ticks)
  11025     0  -1.30900e+13   238  -1.30900e+13      Cuts: 53   569730    0.00%
  11025     0  -1.30900e+13   203  -1.30900e+13      Cuts: 49   569794    0.00%
  11025     0  -1.30900e+13   227  -1.30900e+13      Cuts: 25   569880    0.00%
  11025     0  -1.30900e+13   222  -1.30900e+13      Cuts: 23   569940    0.00%
  11025     0  -1.30900e+13   200  -1.30900e+13      Cuts: 20   569992    0.00%

Repeating presolve.
Tried aggregator 2 times.
MIP Presolve eliminated 191 rows and 546 columns.
MIP Presolve modified 32 coefficients.
Aggregator did 56 substitutions.
Reduced MIP has 458 rows, 995 columns, and 3200 nonzeros.
Reduced MIP has 995 binaries, 0 generals, 0 SOSs, and 0 indicators.
Presolve time = 0.01 sec. (4.09 ticks)
Tried aggregator 1 time.
MIP Presolve eliminated 13 rows and 8 columns.
Reduced MIP has 445 rows, 986 columns, and 3167 nonzeros.
Reduced MIP has 986 binaries, 0 generals, 0 SOSs, and 0 indicators.
Presolve time = 0.00 sec. (3.25 ticks)
Represolve time = 0.06 sec. (33.73 ticks)
  11025     0  -1.30900e+13   245  -1.30900e+13      Cuts: 31   571122    0.00%
  11025     0  -1.30900e+13   203  -1.30900e+13      Cuts: 26   571191    0.00%
  11025     0  -1.30900e+13   171  -1.30900e+13      Cuts: 27   571250    0.00%
  11025     0  -1.30900e+13   261  -1.30900e+13      Cuts: 32   571336    0.00%
  11025     0  -1.30900e+13   228  -1.30900e+13      Cuts: 43   571367    0.00%
  11025     0  -1.30900e+13   191  -1.30900e+13      Cuts: 18   571411    0.00%
  11025     0  -1.30900e+13   243  -1.30900e+13      Cuts: 25   571449    0.00%
  11025     0  -1.30900e+13   202  -1.30900e+13      Cuts: 32   571488    0.00%
  11025     0  -1.30900e+13   206  -1.30900e+13      Cuts: 26   571536    0.00%
  11025     0  -1.30900e+13   224  -1.30900e+13      Cuts: 10   571581    0.00%
  11025     0  -1.30900e+13   230  -1.30900e+13  ZeroHalf: 10   571641    0.00%
  11025     0  -1.30900e+13   271  -1.30900e+13      Cuts: 14   571697    0.00%
  11025     0  -1.30900e+13   224  -1.30900e+13      Cuts: 23   571750    0.00%
  11025     0        cutoff        -1.30900e+13  -1.30900e+13   571793    0.00%

GUB cover cuts applied:  2
Clique cuts applied:  20
Cover cuts applied:  199
Flow cuts applied:  2
Mixed integer rounding cuts applied:  43
Zero-half cuts applied:  64
Lift and project cuts applied:  1
Gomory fractional cuts applied:  3

Root node processing (before b&c):
  Real time             =    1.07 sec. (798.99 ticks)
Parallel b&c, 40 threads:
  Real time             =    8.89 sec. (7019.18 ticks)
  Sync time (average)   =    0.53 sec.
  Wait time (average)   =    0.00 sec.
                          ------------
Total (root+branch&cut) =    9.96 sec. (7818.16 ticks)

Solution pool: 13 solutions saved.

MIP - Integer optimal solution:  Objective = -1.3089998790e+13
Solution time =   10.09 sec.  Iterations = 571793  Nodes = 11025
Deterministic time = 7818.19 ticks  (774.82 ticks/sec)

CPLEX> Solution 'p14' written to file 'ee.sol'.
CPLEX> 